c description: Random 3-CNF over 16 variables and 64 clauses
p cnf 16 64
-1 -10 -13 0
3 -11 14 0
-2 -5 -13 0
6 14 16 0
-6 8 9 0
5 11 15 0
-5 -12 13 0
2 -6 -11 0
1 -3 4 0
1 -4 -10 0
-1 5 8 0
-1 -2 -7 0
-2 -6 -13 0
2 6 8 0
-6 10 15 0
3 4 -16 0
-2 -12 -16 0
4 -5 -14 0
-9 13 14 0
-3 6 -13 0
10 -15 -16 0
6 13 -16 0
1 -2 -8 0
-10 13 15 0
-6 10 14 0
6 -10 13 0
-5 -9 13 0
3 -11 12 0
4 6 -16 0
-2 7 16 0
9 14 -16 0
-6 9 13 0
4 7 -13 0
-3 -11 -15 0
3 -7 -9 0
-8 11 12 0
-1 -6 -10 0
1 -12 -16 0
7 11 -14 0
-2 3 -13 0
-9 11 13 0
-6 11 -14 0
-3 4 -13 0
-2 -7 -10 0
-10 -11 -16 0
-1 -8 -15 0
-2 -9 14 0
2 -8 -15 0
-7 12 13 0
-7 9 -14 0
-3 -5 16 0
-5 -6 -12 0
-3 -8 12 0
6 -9 -15 0
1 5 8 0
-1 -2 8 0
-2 10 -12 0
-5 -11 -12 0
-3 4 15 0
4 8 10 0
1 12 14 0
-7 8 -12 0
10 13 16 0
-3 -7 -15 0